000 000 000 000 000 001 001 002 000 000 000 -99 -99 000 000 -99 -99 -99 -99 -99 -99 000 -99 000 000 000 000 000 000 -99 -99
000 000 000 000 000 001 001 001 001 000 000 -99 -99 000 000 000 -99 -99 -99 -99 -99 000 000 -99 000 000 -99 000 000 -99 -99
000 000 000 000 000 000 002 001 001 000 000 -99 -99 -99 000 000 -99 000 -99 -99 -99 000 000 -99 000 000 -99 -99 000 -99 -99
-99 000 000 000 000 000 002 001 001 000 000 000 000 -99 -99 000 000 000 000 -99 000 000 000 -99 000 -99 -99 -99 -99 -99 -99
000 000 000 000 000 000 001 002 001 000 000 000 000 000 -99 -99 000 000 000 -99 000 000 000 -99 -99 -99 -99 -99 -99 -99 -99
000 000 000 000 000 001 001 001 001 001 000 000 000 000 000 000 001 001 000 000 000 000 000 -99 -99 -99 -99 -99 -99 -99 -99
000 000 000 000 000 000 000 001 001 000 000 001 000 000 000 000 000 001 000 000 000 000 000 000 000 -99 -99 -99 -99 -99 -99
000 000 000 000 000 000 000 000 001 001 000 001 001 001 000 000 000 001 000 000 000 000 000 000 000 -99 -99 -99 -99 -99 -99
000 000 000 000 000 000 000 000 000 000 000 000 000 000 001 001 000 000 000 000 000 000 000 -99 -99 -99 -99 -99 -99 -99 -99
000 000 000 000 000 000 000 000 000 000 000 000 000 000 000 001 001 001 001 000 000 000 -99 -99 000 -99 000 -99 -99 -99 -99
000 000 000 000 000 000 000 000 000 000 000 000 000 000 000 000 000 000 000 000 000 000 -99 -99 -99 -99 000 -99 -99 000 -99
000 000 000 000 000 000 000 000 000 000 000 000 000 000 000 000 000 000 000 000 000 000 -99 000 -99 -99 -99 000 000 000 000
000 000 000 000 000 000 000 000 000 000 000 000 000 000 000 000 000 000 000 000 000 000 -99 -99 000 000 -99 -99 000 000 000
000 000 000 000 000 000 000 000 000 000 000 000 000 000 -99 000 000 000 000 000 000 -99 -99 000 000 000 000 -99 000 000 -99
000 000 -99 000 000 000 000 000 000 000 000 000 000 000 -99 -99 000 000 000 000 -99 -99 -99 000 000 000 000 000 000 000 -99
000 -99 000 000 000 000 -99 000 000 -99 000 000 000 000 000 -99 -99 000 000 -99 -99 -99 -99 000 000 000 000 000 000 000 -99
000 -99 000 000 000 000 000 000 000 -99 -99 000 -99 000 000 -99 000 000 000 -99 -99 -99 -99 000 000 000 000 000 000 000 000
000 000 000 -99 -99 000 000 000 000 -99 -99 000 -99 000 000 -99 000 000 000 -99 -99 -99 000 -99 000 000 000 -99 000 000 000
000 000 000 -99 -99 -99 000 000 000 000 -99 -99 -99 000 000 000 000 000 000 -99 -99 000 000 000 -99 000 000 -99 000 000 -99
000 000 000 000 -99 -99 000 000 000 000 000 000 -99 -99 000 000 000 000 -99 -99 -99 000 000 -99 -99 -99 -99 -99 -99 000 -99
000 000 000 000 000 000 000 000 000 000 -99 -99 000 -99 000 -99 000 000 000 000 000 000 000 -99 -99 -99 -99 -99 -99 -99 -99
000 000 000 000 000 000 000 000 000 000 -99 -99 000 -99 000 000 000 000 000 000 000 000 000 -99 -99 -99 -99 -99 -99 -99 -99
000 000 000 000 000 000 000 000 000 000 -99 -99 000 000 000 000 000 000 000 000 000 000 000 -99 -99 -99 -99 -99 -99 -99 -99
000 000 000 000 000 -99 000 000 -99 000 -99 -99 000 000 000 000 000 000 000 000 000 000 000 -99 -99 -99 -99 -99 -99 -99 -99
000 000 000 000 000 000 000 000 -99 -99 -99 -99 000 000 000 000 000 000 000 000 000 000 000 -99 -99 -99 -99 -99 -99 -99 -99
000 000 000 000 000 000 000 000 000 000 -99 -99 000 000 000 000 000 000 000 000 000 -99 -99 -99 -99 -99 -99 -99 -99 -99 000
000 000 000 000 000 000 000 000 000 000 -99 -99 -99 000 000 000 000 000 000 000 000 000 -99 -99 -99 -99 -99 -99 -99 -99 000
000 000 000 000 000 000 000 000 000 -99 -99 -99 -99 000 000 000 000 000 000 000 000 000 -99 -99 -99 -99 -99 -99 -99 -99 000
000 000 000 -99 000 000 000 000 000 -99 -99 -99 -99 000 000 000 000 000 000 000 000 000 -99 -99 -99 -99 -99 -99 -99 -99 000
000 000 000 000 000 000 000 000 000 -99 -99 -99 -99 000 000 000 000 000 000 000 000 000 -99 -99 -99 -99 -99 -99 -99 -99 -99
000 000 000 000 000 000 000 000 000 -99 -99 -99 -99 -99 -99 000 000 000 000 -99 000 000 -99 000 -99 000 -99 -99 -99 -99 -99
000 000 000 000 000 000 000 000 000 -99 -99 -99 -99 -99 -99 -99 000 000 000 -99 000 000 000 000 000 000 -99 -99 -99 -99 -99
000 000 000 000 000 000 000 000 000 -99 -99 -99 -99 -99 -99 -99 000 000 000 -99 000 000 000 000 000 000 -99 -99 -99 000 -99
000 000 000 000 000 000 000 000 000 000 -99 -99 -99 -99 000 000 000 000 -99 -99 000 000 000 000 000 000 -99 000 000 000 -99
000 000 000 000 000 000 000 000 -99 000 000 -99 -99 -99 000 000 000 000 -99 000 000 000 000 000 000 000 000 000 000 000 000
000 000 000 000 000 000 -99 -99 000 000 000 -99 000 -99 000 000 000 000 -99 000 000 000 000 000 000 000 000 000 000 000 000
000 000 000 000 -99 -99 -99 000 000 000 000 -99 000 -99 000 000 000 000 000 -99 000 000 000 000 000 000 000 000 000 000 000
000 000 -99 -99 -99 -99 -99 000 000 000 -99 000 000 000 000 000 000 000 000 -99 000 000 000 000 000 000 000 000 000 000 -99
000 000 000 -99 000 -99 000 000 -99 000 -99 000 000 000 000 000 000 000 000 -99 000 000 000 000 000 -99 000 000 -99 -99 -99
000 000 000 000 -99 -99 000 000 -99 -99 -99 000 000 000 000 000 000 000 000 000 000 003 000 000 -99 -99 000 000 -99 -99 -99
000 000 000 000 -99 -99 -99 -99 -99 -99 -99 000 000 000 -99 000 000 000 000 -99 001 005 -99 000 -99 -99 000 -99 -99 -99 -99
000 000 000 000 -99 -99 -99 -99 -99 -99 000 000 000 000 -99 000 -99 000 000 000 001 007 -99 -99 -99 -99 -99 -99 -99 -99 -99
000 000 -99 -99 -99 -99 -99 -99 -99 000 000 000 000 000 -99 000 000 000 000 001 003 -99 -99 -99 -99 -99 -99 -99 -99 -99 -99
000 -99 -99 -99 -99 -99 -99 -99 -99 000 000 000 000 000 000 000 000 000 -99 -99 001 000 -99 -99 -99 -99 -99 -99 -99 -99 -99
000 000 -99 -99 -99 -99 -99 -99 -99 000 -99 -99 -99 -99 000 000 -99 -99 -99 000 000 000 -99 000 -99 -99 000 -99 -99 -99 -99
000 -99 -99 -99 -99 -99 -99 -99 -99 -99 -99 -99 -99 000 000 000 -99 -99 -99 000 000 000 -99 000 000 -99 000 -99 -99 -99 -99
000 -99 -99 -99 -99 -99 -99 -99 -99 -99 -99 -99 000 000 000 -99 -99 -99 000 000 000 000 000 000 000 -99 000 -99 -99 -99 -99
-99 -99 -99 -99 -99 -99 -99 -99 -99 -99 -99 -99 000 -99 -99 -99 -99 000 000 000 000 000 000 000 -99 -99 -99 -99 000 -99 -99
-99 -99 -99 -99 -99 -99 -99 -99 -99 -99 -99 -99 -99 -99 -99 -99 000 -99 -99 000 000 000 000 000 -99 -99 000 000 000 -99 -99
-99 -99 -99 -99 -99 -99 -99 -99 -99 -99 -99 -99 -99 -99 -99 -99 000 -99 000 000 000 000 -99 -99 -99 -99 000 000 000 -99 -99
-99 -99 -99 -99 -99 -99 -99 -99 -99 -99 -99 -99 -99 -99 -99 -99 -99 -99 000 000 000 000 -99 -99 -99 -99 000 -99 -99 -99 -99
-99 -99 -99 -99 -99 -99 -99 -99 -99 -99 -99 -99 -99 000 -99 -99 -99 -99 000 000 000 -99 -99 -99 -99 -99 -99 -99 -99 -99 -99
-99 -99 -99 -99 -99 -99 -99 -99 -99 -99 -99 -99 -99 -99 -99 -99 -99 000 000 000 -99 -99 -99 -99 -99 -99 -99 -99 -99 -99 -99
-99 -99 -99 -99 -99 -99 -99 -99 -99 -99 -99 -99 -99 -99 -99 -99 000 000 000 -99 -99 -99 -99 -99 -99 -99 -99 -99 -99 -99 -99
-99 -99 -99 -99 -99 -99 -99 -99 -99 -99 -99 -99 -99 -99 -99 000 000 000 -99 -99 -99 -99 -99 -99 -99 -99 -99 -99 -99 -99 -99
